Minimize
  - 28 y_0 - 17 y_1 - 69 y_2 - 28 y_3 - 37 y_4 - 38 y_5 - 56 y_6 - 36 y_7
   - 65 y_8 - 42 y_9 - 52 y_10 - 33 y_11 - 11 y_12 - 75 y_13 - 18 y_14
   - 53 y_15 - 28 y_16 - 55 y_17 - 33 y_18 - 47 y_19 - 32 y_20 - 47 y_21
   - 41 y_22 - 45 y_23 - 29 y_24 - 18 y_25 - 40 y_26 - 47 y_27 - 58 y_29
   - 51 y_30 - 29 y_31 - 37 y_32 - 17 y_33 - 23 y_34 - 25 y_35 - 54 y_36
   - 44 y_37 - 46 y_38 - 35 y_39 - 38 y_40 - 30 y_41 - 27 y_42 - 42 y_43
   - 69 y_44 - 41 y_45 - 51 y_46 - 27 y_47 - 50 y_48 - 9 y_49
   + 1923 Constant
Subject To
 c_0: y_16 = 1
 c_1_0: y_0 + y_1 + y_9 + y_12 + y_22 + y_25 + y_39 + y_47 >= 1
 c_1_1: y_0 + y_1 + y_12 + y_25 + y_28 + y_47 + y_49 >= 1
 c_1_2: y_2 + y_13 + y_17 >= 1
 c_1_3: y_3 + y_7 + y_11 + y_16 + y_18 + y_34 + y_45 >= 1
 c_1_4: y_4 >= 1
 c_1_5: y_5 + y_23 + y_37 + y_45 >= 1
 c_1_6: y_6 + y_10 + y_15 + y_23 + y_27 + y_36 + y_45 >= 1
 c_1_7: y_3 + y_7 + y_10 + y_11 + y_16 + y_18 + y_34 + y_36 + y_45 >= 1
 c_1_8: y_8 + y_15 + y_23 + y_27 >= 1
 c_1_9: y_0 + y_9 + y_22 + y_39 + y_47 >= 1
 c_1_10: y_6 + y_7 + y_10 + y_15 + y_18 + y_27 + y_36 + y_45 >= 1
 c_1_11: y_3 + y_7 + y_11 + y_16 + y_18 + y_34 + y_45 >= 1
 c_1_12: y_0 + y_1 + y_12 + y_25 + y_28 + y_47 + y_49 >= 1
 c_1_13: y_2 + y_13 >= 1
 c_1_14: y_14 + y_20 + y_24 + y_28 + y_31 + y_33 + y_41 + y_42 >= 1
 c_1_15: y_6 + y_8 + y_10 + y_15 + y_23 + y_27 + y_36 + y_45 >= 1
 c_1_16: y_3 + y_7 + y_11 + y_16 + y_18 + y_34 + y_45 >= 1
 c_1_17: y_2 + y_17 + y_21 + y_26 + y_38 + y_46 >= 1
 c_1_18: y_3 + y_7 + y_10 + y_11 + y_16 + y_18 + y_23 + y_27 + y_34 + y_45
   >= 1
 c_1_19: y_19 + y_32 + y_41 >= 1
 c_1_20: y_14 + y_20 + y_24 + y_31 + y_42 + y_43 >= 1
 c_1_21: y_17 + y_21 + y_26 + y_38 + y_46 >= 1
 c_1_22: y_0 + y_9 + y_22 + y_39 + y_47 >= 1
 c_1_23: y_5 + y_6 + y_8 + y_15 + y_18 + y_23 + y_27 + y_45 >= 1
 c_1_24: y_14 + y_20 + y_24 + y_31 + y_33 + y_42 + y_43 >= 1
 c_1_25: y_0 + y_1 + y_12 + y_25 + y_28 + y_39 + y_47 + y_49 >= 1
 c_1_26: y_17 + y_21 + y_26 + y_35 + y_38 + y_46 >= 1
 c_1_27: y_6 + y_8 + y_10 + y_15 + y_18 + y_23 + y_27 + y_45 >= 1
 c_1_28: y_1 + y_12 + y_14 + y_25 + y_28 + y_33 + y_49 >= 1
 c_1_29: y_29 + y_40 + y_48 >= 1
 c_1_30: y_30 + y_43 + y_44 >= 1
 c_1_31: y_14 + y_20 + y_24 + y_31 + y_42 + y_43 >= 1
 c_1_32: y_19 + y_32 + y_35 + y_41 >= 1
 c_1_33: y_14 + y_24 + y_28 + y_33 + y_35 + y_41 + y_42 >= 1
 c_1_34: y_3 + y_7 + y_11 + y_16 + y_18 + y_34 + y_45 >= 1
 c_1_35: y_26 + y_32 + y_33 + y_35 + y_41 >= 1
 c_1_36: y_6 + y_7 + y_10 + y_15 + y_36 + y_46 >= 1
 c_1_37: y_5 + y_37 >= 1
 c_1_38: y_17 + y_21 + y_26 + y_38 + y_46 >= 1
 c_1_39: y_0 + y_9 + y_22 + y_25 + y_39 + y_47 >= 1
 c_1_40: y_29 + y_40 + y_47 + y_48 >= 1
 c_1_41: y_14 + y_19 + y_32 + y_33 + y_35 + y_41 + y_42 >= 1
 c_1_42: y_14 + y_20 + y_24 + y_31 + y_33 + y_41 + y_42 >= 1
 c_1_43: y_20 + y_24 + y_30 + y_31 + y_43 >= 1
 c_1_44: y_30 + y_44 >= 1
 c_1_45: y_3 + y_5 + y_6 + y_7 + y_10 + y_11 + y_15 + y_16 + y_18 + y_23
   + y_27 + y_34 + y_45 >= 1
 c_1_46: y_17 + y_21 + y_26 + y_36 + y_38 + y_46 >= 1
 c_1_47: y_0 + y_1 + y_9 + y_12 + y_22 + y_25 + y_39 + y_40 + y_47 + y_49
   >= 1
 c_1_48: y_29 + y_40 + y_48 >= 1
 c_1_49: y_1 + y_12 + y_25 + y_28 + y_47 + y_49 >= 1
Bounds
 Constant = 1
Binaries
 y_0 y_1 y_2 y_3 y_4 y_5 y_6 y_7 y_8 y_9 y_10 y_11 y_12 y_13 y_14 y_15 y_16
 y_17 y_18 y_19 y_20 y_21 y_22 y_23 y_24 y_25 y_26 y_27 y_28 y_29 y_30 y_31
 y_32 y_33 y_34 y_35 y_36 y_37 y_38 y_39 y_40 y_41 y_42 y_43 y_44 y_45 y_46
 y_47 y_48 y_49
End
